letting n =  10
letting blocks =  [[1, 5], [1, 7], [1, 8], [1, 10], [2, 1], [2, 2], [2, 6], [2, 9], [3, 1], [3, 2], [3, 3], [3, 4], [3, 5], [3, 6], [4, 2], [4, 5], [4, 7], [4, 9], [4, 10], [5, 3], [5, 6], [5, 7], [5, 8], [5, 10], [6, 3], [6, 7], [6, 10], [7, 3], [7, 6], [7, 7], [8, 4], [8, 5], [9, 2], [9, 3], [9, 4], [9, 5], [9, 7], [9, 10], [10, 1], [10, 2], [10, 4], [10, 8]]
